20
1 0 45
2 0 21
2 1 26
3 0 27
3 1 1
3 2 37
4 0 12
4 1 10
4 2 21
4 3 6
5 0 30
5 1 42
5 2 41
5 3 32
5 4 15
6 0 29
6 1 17
6 2 27
6 3 48
6 4 31
6 5 18
7 0 31
7 1 7
7 2 29
7 3 29
7 4 43
7 5 17
7 6 49
8 0 43
8 1 7
8 2 41
8 3 20
8 4 14
8 5 27
8 6 9
8 7 13
9 0 2
9 1 41
9 2 30
9 3 33
9 4 32
9 5 41
9 6 45
9 7 27
9 8 18
10 0 4
10 1 38
10 2 1
10 3 25
10 4 50
10 5 45
10 6 49
10 7 30
10 8 2
10 9 5
11 0 42
11 1 12
11 2 44
11 3 15
11 4 23
11 5 50
11 6 35
11 7 42
11 8 20
11 9 45
11 10 48
12 0 19
12 1 1
12 2 24
12 3 10
12 4 6
12 5 12
12 6 12
12 7 36
12 8 1
12 9 36
12 10 35
12 11 19
13 0 46
13 1 5
13 2 6
13 3 41
13 4 31
13 5 13
13 6 50
13 7 29
13 8 33
13 9 46
13 10 50
13 11 11
13 12 50
14 0 48
14 1 10
14 2 22
14 3 6
14 4 19
14 5 22
14 6 20
14 7 49
14 8 28
14 9 24
14 10 11
14 11 7
14 12 29
14 13 50
15 0 12
15 1 38
15 2 19
15 3 43
15 4 5
15 5 23
15 6 15
15 7 49
15 8 15
15 9 50
15 10 12
15 11 43
15 12 34
15 13 27
15 14 15
16 0 29
16 1 28
16 2 42
16 3 42
16 4 39
16 5 44
16 6 25
16 7 12
16 8 50
16 9 29
16 10 21
16 11 42
16 12 12
16 13 42
16 14 40
16 15 33
17 0 44
17 1 8
17 2 25
17 3 15
17 4 7
17 5 6
17 6 20
17 7 28
17 8 32
17 9 25
17 10 24
17 11 5
17 12 50
17 13 8
17 14 20
17 15 3
17 16 12
18 0 34
18 1 32
18 2 21
18 3 38
18 4 37
18 5 8
18 6 29
18 7 41
18 8 36
18 9 29
18 10 15
18 11 46
18 12 50
18 13 10
18 14 11
18 15 35
18 16 5
18 17 1
19 0 21
19 1 2
19 2 14
19 3 6
19 4 35
19 5 18
19 6 30
19 7 45
19 8 36
19 9 35
19 10 22
19 11 31
19 12 9
19 13 36
19 14 40
19 15 32
19 16 17
19 17 44
19 18 12
